NAME : 40_4_02.72610.tour
COMMENT : Cost = 0_72610
COMMENT : Found by LKH [Keld Helsgaun] Thu Sep 14 11:07:28 2017
TYPE : TOUR
DIMENSION : 44
TOUR_SECTION
1
7
34
31
8
10
43
25
26
23
22
41
24
32
33
5
30
17
4
2
42
35
14
27
15
16
28
13
40
19
38
18
39
21
20
11
12
36
29
37
3
44
9
6
-1
EOF
